multiobj/instances/uniform/Ter.5.2.0.80.2.in
5 2
0 468 183 274 334 
468 0 166 343 169 
183 166 0 751 345 
274 343 751 0 397 
334 169 345 397 0 
0 51 74 668 227 
51 0 165 826 264 
74 165 0 589 474 
668 826 589 0 121 
227 264 474 121 0 
0 70 99 760 190 
70 0 413 557 449 
99 413 0 534 545 
760 557 534 0 280 
190 449 545 280 0 
