multiobj/solutions/Ter.5.2.0.80.2.out
2 2
3 4 2 1 0 
1785964 2241764 
3 2 4 0 1 
1827878 2171468 
